
  32    4
  10   10   10   10

   0   0   0   0   0  22 2 3 5 6 7 15 16 17 18 19 20 21 22 23 24 25 26 27 28 29 30 31 
   3   1   1   0   1   4 14 13 9 4 
  10   0   4   1   2   2 9 8 
   8   0   3   7   3   1 10 
   9   3   0   4   2   1 12 
   1   3   2   0   4   1 11 
   7   8   6   4   0   1 8 
   5   0   5   3   4   1 32
   4   3   0   4   2   1 32
   6   5   5   2   0   1 32
   2   5   3   1   0   1 32
   8   0   3   2   4   1 32
   8   0   3   3   7   1 32
   5   7   3   4   0   1 32
   4   6   7   0   3   1 32
   1   0   5   6   7   1 32
   7   4   6   0   2   1 32
   5   3   0   3   5   1 32
  10   3   6   8   0   1 32
   3   2   0   4   5   1 32
   4   4   1   4   0   1 32
   6   0   8   7   3   1 32
   5   4   0   4   6   1 32
   2   3   2   0   2   1 32
   9   0   4   5   6   1 32
   1   6   0   2   8   1 32
   4   4   4   0   2   1 32
   3   3   6   0   4   1 32
   1   4   3   1   0   1 32
  10   0   2   6   1   1 32
   9   3   0   7   9   1 32
   0   0   0   0   0   0 
